\ENCODING=ISO-8859-1
\Problem name: 

Minimize
 obj: 10 x1 + x2 + x3 + x4 + x5 + x6 + 10 x7 + 10 x8 + x9 + x10 + x11 + x12
      + x13 + 10 x14 + x15 + x16 + x17 + x18 + x19 + x20 + x21 + x22 + x23
      + x24 + x25 + x26 + x27 + x28 + x29 + x30 + x31 + x32 + x33 + x34 + x35
      + x36 + x37 + x38 + x39 + x40 + x41 + x42 + x43 + x44 + x45
Subject To
 c1:   x2 + z2,2 + z2,19 <= 1
 c2:   - x2 - z2,2 - z2,19 <= -1
 c3:   x3 + z3,3 + z3,19 <= 1
 c4:   - x3 - z3,3 - z3,19 <= -1
 c5:   x4 + z4,4 + z4,19 <= 1
 c6:   - x4 - z4,4 - z4,19 <= -1
 c7:   x5 + z5,5 + z5,19 <= 1
 c8:   - x5 - z5,5 - z5,19 <= -1
 c9:   x6 + z6,6 + z6,19 <= 1
 c10:  - x6 - z6,6 - z6,19 <= -1
 c11:  x8 + z8,1 + z8,2 <= 1
 c12:  - x8 - z8,1 - z8,2 <= -1
 c13:  x9 + z9,2 + z9,3 <= 1
 c14:  - x9 - z9,2 - z9,3 <= -1
 c15:  x10 + z10,3 + z10,4 <= 1
 c16:  - x10 - z10,3 - z10,4 <= -1
 c17:  x11 + z11,4 + z11,5 <= 1
 c18:  - x11 - z11,4 - z11,5 <= -1
 c19:  x12 + z12,5 + z12,6 <= 1
 c20:  - x12 - z12,5 - z12,6 <= -1
 c21:  x13 + z13,6 + z13,19 <= 1
 c22:  - x13 - z13,6 - z13,19 <= -1
 c23:  x14 + z14,1 + z14,7 <= 1
 c24:  - x14 - z14,1 - z14,7 <= -1
 c25:  x15 + z15,2 + z15,8 <= 1
 c26:  - x15 - z15,2 - z15,8 <= -1
 c27:  x16 + z16,3 + z16,9 <= 1
 c28:  - x16 - z16,3 - z16,9 <= -1
 c29:  x17 + z17,4 + z17,10 <= 1
 c30:  - x17 - z17,4 - z17,10 <= -1
 c31:  x18 + z18,5 + z18,11 <= 1
 c32:  - x18 - z18,5 - z18,11 <= -1
 c33:  x19 + z19,6 + z19,12 <= 1
 c34:  - x19 - z19,6 - z19,12 <= -1
 c35:  x20 + z20,7 + z20,19 <= 1
 c36:  - x20 - z20,7 - z20,19 <= -1
 c37:  x21 + z21,7 + z21,8 <= 1
 c38:  - x21 - z21,7 - z21,8 <= -1
 c39:  x22 + z22,8 + z22,9 <= 1
 c40:  - x22 - z22,8 - z22,9 <= -1
 c41:  x23 + z23,9 + z23,10 <= 1
 c42:  - x23 - z23,9 - z23,10 <= -1
 c43:  x24 + z24,10 + z24,11 <= 1
 c44:  - x24 - z24,10 - z24,11 <= -1
 c45:  x25 + z25,11 + z25,12 <= 1
 c46:  - x25 - z25,11 - z25,12 <= -1
 c47:  x26 + z26,12 + z26,19 <= 1
 c48:  - x26 - z26,12 - z26,19 <= -1
 c49:  x27 + z27,7 + z27,13 <= 1
 c50:  - x27 - z27,7 - z27,13 <= -1
 c51:  x28 + z28,8 + z28,14 <= 1
 c52:  - x28 - z28,8 - z28,14 <= -1
 c53:  x29 + z29,9 + z29,15 <= 1
 c54:  - x29 - z29,9 - z29,15 <= -1
 c55:  x30 + z30,10 + z30,16 <= 1
 c56:  - x30 - z30,10 - z30,16 <= -1
 c57:  x31 + z31,11 + z31,17 <= 1
 c58:  - x31 - z31,11 - z31,17 <= -1
 c59:  x32 + z32,12 + z32,18 <= 1
 c60:  - x32 - z32,12 - z32,18 <= -1
 c61:  x33 + z33,13 + z33,19 <= 1
 c62:  - x33 - z33,13 - z33,19 <= -1
 c63:  x34 + z34,13 + z34,14 <= 1
 c64:  - x34 - z34,13 - z34,14 <= -1
 c65:  x35 + z35,14 + z35,15 <= 1
 c66:  - x35 - z35,14 - z35,15 <= -1
 c67:  x36 + z36,15 + z36,16 <= 1
 c68:  - x36 - z36,15 - z36,16 <= -1
 c69:  x37 + z37,16 + z37,17 <= 1
 c70:  - x37 - z37,16 - z37,17 <= -1
 c71:  x38 + z38,17 + z38,18 <= 1
 c72:  - x38 - z38,17 - z38,18 <= -1
 c73:  x39 + z39,18 + z39,19 <= 1
 c74:  - x39 - z39,18 - z39,19 <= -1
 c75:  x40 + z40,13 + z40,19 <= 1
 c76:  - x40 - z40,13 - z40,19 <= -1
 c77:  x41 + z41,14 + z41,19 <= 1
 c78:  - x41 - z41,14 - z41,19 <= -1
 c79:  x42 + z42,15 + z42,19 <= 1
 c80:  - x42 - z42,15 - z42,19 <= -1
 c81:  x43 + z43,16 + z43,19 <= 1
 c82:  - x43 - z43,16 - z43,19 <= -1
 c83:  x44 + z44,17 + z44,19 <= 1
 c84:  - x44 - z44,17 - z44,19 <= -1
 c85:  x45 + z45,18 + z45,19 <= 1
 c86:  - x45 - z45,18 - z45,19 <= -1
 c87:  z2,2 + z8,2 + z9,2 + z15,2 <= 1
 c88:  - z2,2 - z8,2 - z9,2 - z15,2 <= -1
 c89:  z3,3 + z9,3 + z10,3 + z16,3 <= 1
 c90:  - z3,3 - z9,3 - z10,3 - z16,3 <= -1
 c91:  z4,4 + z10,4 + z11,4 + z17,4 <= 1
 c92:  - z4,4 - z10,4 - z11,4 - z17,4 <= -1
 c93:  z5,5 + z11,5 + z12,5 + z18,5 <= 1
 c94:  - z5,5 - z11,5 - z12,5 - z18,5 <= -1
 c95:  z6,6 + z12,6 + z13,6 + z19,6 <= 1
 c96:  - z6,6 - z12,6 - z13,6 - z19,6 <= -1
 c97:  z14,7 + z20,7 + z21,7 + z27,7 <= 1
 c98:  - z14,7 - z20,7 - z21,7 - z27,7 <= -1
 c99:  z15,8 + z21,8 + z22,8 + z28,8 <= 1
 c100: - z15,8 - z21,8 - z22,8 - z28,8 <= -1
 c101: z16,9 + z22,9 + z23,9 + z29,9 <= 1
 c102: - z16,9 - z22,9 - z23,9 - z29,9 <= -1
 c103: z17,10 + z23,10 + z24,10 + z30,10 <= 1
 c104: - z17,10 - z23,10 - z24,10 - z30,10 <= -1
 c105: z18,11 + z24,11 + z25,11 + z31,11 <= 1
 c106: - z18,11 - z24,11 - z25,11 - z31,11 <= -1
 c107: z19,12 + z25,12 + z26,12 + z32,12 <= 1
 c108: - z19,12 - z25,12 - z26,12 - z32,12 <= -1
 c109: z27,13 + z33,13 + z34,13 + z40,13 <= 1
 c110: - z27,13 - z33,13 - z34,13 - z40,13 <= -1
 c111: z28,14 + z34,14 + z35,14 + z41,14 <= 1
 c112: - z28,14 - z34,14 - z35,14 - z41,14 <= -1
 c113: z29,15 + z35,15 + z36,15 + z42,15 <= 1
 c114: - z29,15 - z35,15 - z36,15 - z42,15 <= -1
 c115: z30,16 + z36,16 + z37,16 + z43,16 <= 1
 c116: - z30,16 - z36,16 - z37,16 - z43,16 <= -1
 c117: z31,17 + z37,17 + z38,17 + z44,17 <= 1
 c118: - z31,17 - z37,17 - z38,17 - z44,17 <= -1
 c119: z32,18 + z38,18 + z39,18 + z45,18 <= 1
 c120: - z32,18 - z38,18 - z39,18 - z45,18 <= -1
 c121: x1 + x7 <= 2
 c122: - x1 - x7 <= -2
 c123: x1 + x2 + x8 <= 2
 c124: - x1 - x2 - x8 <= -2
 c125: x2 + x3 + x9 <= 2
 c126: - x2 - x3 - x9 <= -2
 c127: x3 + x4 + x10 <= 2
 c128: - x3 - x4 - x10 <= -2
 c129: x4 + x5 + x11 <= 2
 c130: - x4 - x5 - x11 <= -2
 c131: x5 + x6 + x12 <= 2
 c132: - x5 - x6 - x12 <= -2
 c133: x6 + x13 <= 2
 c134: - x6 - x13 <= -2
 c135: x7 + x14 + x20 <= 2
 c136: - x7 - x14 - x20 <= -2
 c137: x8 + x14 + x15 + x21 <= 2
 c138: - x8 - x14 - x15 - x21 <= -2
 c139: x9 + x15 + x16 + x22 <= 2
 c140: - x9 - x15 - x16 - x22 <= -2
 c141: x10 + x16 + x17 + x23 <= 2
 c142: - x10 - x16 - x17 - x23 <= -2
 c143: x11 + x17 + x18 + x24 <= 2
 c144: - x11 - x17 - x18 - x24 <= -2
 c145: x12 + x18 + x19 + x25 <= 2
 c146: - x12 - x18 - x19 - x25 <= -2
 c147: x13 + x19 + x26 <= 2
 c148: - x13 - x19 - x26 <= -2
 c149: x20 + x27 + x33 <= 2
 c150: - x20 - x27 - x33 <= -2
 c151: x21 + x27 + x28 + x34 <= 2
 c152: - x21 - x27 - x28 - x34 <= -2
 c153: x22 + x28 + x29 + x35 <= 2
 c154: - x22 - x28 - x29 - x35 <= -2
 c155: x23 + x29 + x30 + x36 <= 2
 c156: - x23 - x29 - x30 - x36 <= -2
 c157: x24 + x30 + x31 + x37 <= 2
 c158: - x24 - x30 - x31 - x37 <= -2
 c159: x25 + x31 + x32 + x38 <= 2
 c160: - x25 - x31 - x32 - x38 <= -2
 c161: x26 + x32 + x39 <= 2
 c162: - x26 - x32 - x39 <= -2
 c163: x33 + x40 <= 2
 c164: - x33 - x40 <= -2
 c165: x34 + x40 + x41 <= 2
 c166: - x34 - x40 - x41 <= -2
 c167: x35 + x41 + x42 <= 2
 c168: - x35 - x41 - x42 <= -2
 c169: x36 + x42 + x43 <= 2
 c170: - x36 - x42 - x43 <= -2
 c171: x37 + x43 + x44 <= 2
 c172: - x37 - x43 - x44 <= -2
 c173: x38 + x44 + x45 <= 2
 c174: - x38 - x44 - x45 <= -2
 c175: x39 + x45 <= 2
 c176: - x39 - x45 <= -2
 c177: - z2,2 - z3,3 - z4,4 - z6,6 - z8,2 - z10,3 - z10,4 - z11,4 - z11,5
       - z12,6 - z13,6 - z14,7 - z17,4 - z17,10 - z18,5 - z19,6 - z19,12
       - z20,7 - 2 z21,7 - 2 z21,8 - z22,8 - z22,9 - z23,9 - z23,10 - 2 z24,10
       - z24,11 - z25,12 - z26,12 - 2 z27,7 - z27,13 - 3 z28,8 - 2 z28,14
       - 2 z29,9 - z29,15 - z30,10 - 2 z30,16 - z31,11 - 2 z31,17 - z32,12
       - z32,18 - z34,13 - z34,14 - z35,14 - 2 z35,15 - z36,15 - 2 z36,16
       - 2 z37,16 - z37,17 - 2 z38,17 - z38,18 - z42,15 - z42,19 - 2 z43,16
       - z44,17 - z45,18 - z45,19 <= -16
End
